LAMMPS (19 Nov 2024)
OMP_NUM_THREADS environment is not set. Defaulting to 1 thread. (src/comm.cpp:99)
  using 1 OpenMP thread(s) per MPI task
Loaded 1 plugins from C:\Users\ja10d\AppData\Local\LAMMPS 64-bit 19Nov2024-MSMPI\plugins
# Input file for uniaxial tensile test of Nb-Ti-Zr-Mo-V Alloy at 300K

# ------------------------ VARIABLES ------------------------------
variable		lat_cont equal 3.1
variable 		fNb equal 20
variable		fTi equal 20
variable 		fZr equal 20
variable 		fMo equal 20
variable 		fV equal 20
variable		randomseed equal 2345674
variable        T equal 300 #Temperature: 300K
variable 		srate equal 1.0e9
variable 		SR equal "v_srate / 1.0e12" #Strain Rate: 0.001ps-1
variable	    TS equal 0.001 #Timestep: 0.001ps=1fs
variable        HS equal 100000 #Heating Steps
variable        RS equal 100000 #Relaxing Steps
variable        DS equal 500000 #Deformation Steps

# ------------------------ INITIALIZATION ------------------------------
units           metal
boundary	    p p p
atom_style	    atomic
atom_modify     map array
neighbor		2.0 bin
neigh_modify	delay 1 check yes

# ------------------------ ATOM CONFIGURATION ------------------------------
read_data      NbTiZrMoV.lmp
Reading data file ...
  orthogonal box = (0 0 0) to (62 62 62)
  1 by 1 by 1 MPI processor grid
  reading atoms ...
  16000 atoms
  read_data CPU = 0.056 seconds

# ------------------------ FORCE FIELDS ------------------------------
pair_style		meam
pair_coeff		* * library.meam Nb Ti Zr Mo V NbTiZrMoV.meam Nb Ti Zr Mo V


# ------------------------ COMPUTES PARAMETERS ------------------------------
compute 		pe all pe/atom
compute 		ke all ke/atom
compute 		mytemp all temp
compute 		stress all stress/atom NULL
compute         centrosym all centro/atom 8

# ------------------------ EQUILIBRATION ------------------------------
# Energy Minimization
reset_timestep  0
fix	            1 all box/relax x 0.0 y 0.0 z 0.0
dump	        1 all custom 1000 dump.minimization.* id type x y z
min_style	    cg
minimize	    0.0 1.0e-8 1000 10000
Switching to 'neigh_modify every 1 delay 0 check yes' setting during minimization
Neighbor list info ...
  update: every = 1 steps, delay = 0 steps, check = yes
  max neighbors/atom: 2000, page size: 100000
  master list distance cutoff = 10
  ghost atom cutoff = 10
  binsize = 5, bins = 13 13 13
  3 neighbor lists, perpetual/occasional/extra = 2 1 0
  (1) pair meam, perpetual
      attributes: full, newton on
      pair build: full/bin/atomonly
      stencil: full/bin/3d
      bin: standard
  (2) pair meam, perpetual, half/full from (1)
      attributes: half, newton on
      pair build: halffull/newton
      stencil: none
      bin: none
  (3) compute centro/atom, occasional, copy from (1)
      attributes: full, newton on
      pair build: copy
      stencil: none
      bin: none
WARNING: Energy due to 3 extra global DOFs will be included in minimizer energies
 (src/min.cpp:219)
Per MPI rank memory allocation (min/avg/max) = 108.6 | 108.6 | 108.6 Mbytes
   Step          Temp          E_pair         E_mol          TotEng         Press          Volume    
         0   0             -92598.807      0             -92598.807      288372.42      238328       
      1000   0             -95881.552      0             -95881.552     -0.14180274     281067.73    
Loop time of 1281.22 on 1 procs for 1000 steps with 16000 atoms

83.0% CPU use with 1 MPI tasks x 1 OpenMP threads

Minimization stats:
  Stopping criterion = max iterations
  Energy initial, next-to-last, final = 
     -92598.8068597649  -95881.4845950365  -95881.5516250051
  Force two-norm initial, final = 74300.014 151.42834
  Force max component initial, final = 43086.372 33.782902
  Final line search alpha, max atom move = 1.7417208e-06 5.8840382e-05
  Iterations, force evaluations = 1000 1000

MPI task timing breakdown:
Section |  min time  |  avg time  |  max time  |%varavg| %total
---------------------------------------------------------------
Pair    | 1278.3     | 1278.3     | 1278.3     |   0.0 | 99.77
Neigh   | 1.0635     | 1.0635     | 1.0635     |   0.0 |  0.08
Comm    | 0.16393    | 0.16393    | 0.16393    |   0.0 |  0.01
Output  | 0.044936   | 0.044936   | 0.044936   |   0.0 |  0.00
Modify  | 0          | 0          | 0          |   0.0 |  0.00
Other   |            | 1.664      |            |       |  0.13

Nlocal:          16000 ave       16000 max       16000 min
Histogram: 1 0 0 0 0 0 0 0 0 0
Nghost:          21259 ave       21259 max       21259 min
Histogram: 1 0 0 0 0 0 0 0 0 0
Neighs:      2.064e+06 ave   2.064e+06 max   2.064e+06 min
Histogram: 1 0 0 0 0 0 0 0 0 0
FullNghs:    4.128e+06 ave   4.128e+06 max   4.128e+06 min
Histogram: 1 0 0 0 0 0 0 0 0 0

Total # of neighbors = 4128000
Ave neighs/atom = 258
Neighbor list builds = 6
Dangerous builds = 0
undump		    1
unfix           1

write_data      NbTiZrMoV_min.data
System init for write_data ...


# Energy Equilibration
reset_timestep  0
timestep	    ${TS}
timestep	    0.001

#Heated to 300K
velocity	    all create 0.1 123456 dist gaussian
fix	            1 all npt temp 0.1 ${T} 0.1 iso 0.0 0.0 1.0
fix	            1 all npt temp 0.1 300 0.1 iso 0.0 0.0 1.0
thermo	        10000
thermo_style    custom step temp etotal press vol

dump	        1 all atom 100000 Alloy-Heat.lammpstrj
run		        ${HS}
run		        100000
Per MPI rank memory allocation (min/avg/max) = 105.3 | 105.3 | 105.3 Mbytes
   Step          Temp          TotEng         Press          Volume    
         0   0.1           -95881.345      0.64409418     281067.73    
     10000   33.597769     -95540.001      158385.46      254782.76    
     20000   64.961226     -95401.122      159159.8       254833.2     
     30000   99.041405     -95260.511      158740.73      255023.12    
     40000   131.76775     -95132.05       158584.68      255269.94    
     50000   160.90851     -95023.23       158008.29      255441.07    
     60000   197.35349     -94887.933      157094.51      255839.4     
     70000   228.21485     -94752.146      157435.73      256016.39    
     80000   262.6567      -94621.858      156154.69      256311.43    
     90000   292.74629     -94493.583      155342.67      256668.42    
    100000   327.50353     -94339.894      155320.02      256942.25    
Loop time of 59686.4 on 1 procs for 100000 steps with 16000 atoms

Performance: 0.145 ns/day, 165.796 hours/ns, 1.675 timesteps/s, 26.807 katom-step/s
58.9% CPU use with 1 MPI tasks x 1 OpenMP threads

MPI task timing breakdown:
Section |  min time  |  avg time  |  max time  |%varavg| %total
---------------------------------------------------------------
Pair    | 51862      | 51862      | 51862      |   0.0 | 86.89
Neigh   | 7737.1     | 7737.1     | 7737.1     |   0.0 | 12.96
Comm    | 37.542     | 37.542     | 37.542     |   0.0 |  0.06
Output  | 0.022558   | 0.022558   | 0.022558   |   0.0 |  0.00
Modify  | 37.667     | 37.667     | 37.667     |   0.0 |  0.06
Other   |            | 11.62      |            |       |  0.02

Nlocal:          16000 ave       16000 max       16000 min
Histogram: 1 0 0 0 0 0 0 0 0 0
Nghost:          21239 ave       21239 max       21239 min
Histogram: 1 0 0 0 0 0 0 0 0 0
Neighs:    2.14011e+06 ave 2.14011e+06 max 2.14011e+06 min
Histogram: 1 0 0 0 0 0 0 0 0 0
FullNghs:  4.28022e+06 ave 4.28022e+06 max 4.28022e+06 min
Histogram: 1 0 0 0 0 0 0 0 0 0

Total # of neighbors = 4280222
Ave neighs/atom = 267.51387
Neighbor list builds = 99974
Dangerous builds = 99973
undump		    1
unfix		    1

#Relax at 300K
fix	            2 all npt temp ${T} ${T} 0.1 iso 0.0 0.0 1.0
fix	            2 all npt temp 300 ${T} 0.1 iso 0.0 0.0 1.0
fix	            2 all npt temp 300 300 0.1 iso 0.0 0.0 1.0
dump	        2 all atom 100000 Alloy-Relax.lammpstrj
run		        ${RS}
run		        100000
Per MPI rank memory allocation (min/avg/max) = 105.3 | 105.3 | 105.3 Mbytes
   Step          Temp          TotEng         Press          Volume    
    100000   327.50353     -94339.894      155320.02      256942.25    
    110000   304.58633     -95566.939      214.1743       285003.86    
    120000   302.48313     -95566.812     -31.597499      285053.68    
    130000   301.3442      -95565.775     -271.82801      285196.16    
    140000   300.95428     -95566.08      -201.42866      285101.9     
    150000   303.09016     -95565.669     -150.61602      285153.5     
    160000   300.71534     -95566.243     -140.86905      285131.83    
    170000   302.85637     -95563.582      565.75889      284912.5     
    180000   301.41616     -95560.696      711.44744      285003.01    
    190000   299.94831     -95561.697      135.2325       285113.99    
    200000   302.91842     -95563.73      -323.98377      285219.41    
Loop time of 59352.3 on 1 procs for 100000 steps with 16000 atoms

Performance: 0.146 ns/day, 164.867 hours/ns, 1.685 timesteps/s, 26.958 katom-step/s
55.6% CPU use with 1 MPI tasks x 1 OpenMP threads

MPI task timing breakdown:
Section |  min time  |  avg time  |  max time  |%varavg| %total
---------------------------------------------------------------
Pair    | 59290      | 59290      | 59290      |   0.0 | 99.89
Neigh   | 3.9116     | 3.9116     | 3.9116     |   0.0 |  0.01
Comm    | 7.6408     | 7.6408     | 7.6408     |   0.0 |  0.01
Output  | 0.031645   | 0.031645   | 0.031645   |   0.0 |  0.00
Modify  | 42.962     | 42.962     | 42.962     |   0.0 |  0.07
Other   |            | 7.852      |            |       |  0.01

Nlocal:          16000 ave       16000 max       16000 min
Histogram: 1 0 0 0 0 0 0 0 0 0
Nghost:          20247 ave       20247 max       20247 min
Histogram: 1 0 0 0 0 0 0 0 0 0
Neighs:    1.93902e+06 ave 1.93902e+06 max 1.93902e+06 min
Histogram: 1 0 0 0 0 0 0 0 0 0
FullNghs:  3.87804e+06 ave 3.87804e+06 max 3.87804e+06 min
Histogram: 1 0 0 0 0 0 0 0 0 0

Total # of neighbors = 3878040
Ave neighs/atom = 242.3775
Neighbor list builds = 48
Dangerous builds = 0
undump		    2
unfix		    2

write_data      NbTiZrMoV_equi_300.data
System init for write_data ...

# ------------------------ UNIAXIAL TENSILE DEFORMATION ------------------------------

reset_timestep  0

#Deform along x axis
variable        NoAtom equal "count(all)"
variable        xmin equal xlo
variable        xmax equal xhi
variable        ymin equal ylo
variable        ymax equal yhi
variable        zmin equal zlo
variable        zmax equal zhi
variable        lx   equal ${xmax}-${xmin}
variable        lx   equal 63.8994575789201-${xmin}
variable        lx   equal 63.8994575789201--1.89945757891915
variable        ly   equal ${ymax}-${ymin}
variable        ly   equal 63.9186065968226-${ymin}
variable        ly   equal 63.9186065968226--1.91860659732166
variable        lz   equal ${zmax}-${zmin}
variable        lz   equal 63.9199305374646-${zmin}
variable        lz   equal 63.9199305374646--1.91993053817609
variable        avol equal ${lx}*${ly}*${lz}/${NoAtom}
variable        avol equal 65.7989151578392*${ly}*${lz}/${NoAtom}
variable        avol equal 65.7989151578392*65.8372131941443*${lz}/${NoAtom}
variable        avol equal 65.7989151578392*65.8372131941443*65.8398610756407/${NoAtom}
variable        avol equal 65.7989151578392*65.8372131941443*65.8398610756407/16000

compute	        s all stress/atom NULL
compute	        avexx all reduce ave c_s[1]
compute	        aveyy all reduce ave c_s[2]
compute	        avezz all reduce ave c_s[3]
compute	        avexy all reduce ave c_s[4]
compute	        avexz all reduce ave c_s[5]
compute	        aveyz all reduce ave c_s[6]
variable        stressfactor equal 0.1/v_avol/1000

variable        s1 equal c_avexx*v_stressfactor
fix             sxx all ave/time 1 10000 10000 v_s1 file stress-curve-xx.txt
variable        s2 equal c_aveyy*v_stressfactor
fix             syy all ave/time 1 10000 10000 v_s2 file stress-curve-yy.txt
variable        s3 equal c_avezz*v_stressfactor
fix             szz all ave/time 1 10000 10000 v_s3 file stress-curve-zz.txt
variable        s4 equal c_avexy*v_stressfactor
fix             sxy all ave/time 1 10000 10000 v_s4 file stress-curve-xy.txt
variable        s5 equal c_avexz*v_stressfactor
fix             sxz all ave/time 1 10000 10000 v_s5 file stress-curve-xz.txt
variable        s6 equal c_aveyz*v_stressfactor
fix             syz all ave/time 1 10000 10000 v_s6 file stress-curve-yz.txt

variable        asxx atom c_s[1]*v_stressfactor
fix             asxx all ave/atom 1 10000 10000 v_asxx
variable        asyy atom c_s[2]*v_stressfactor
fix             asyy all ave/atom 1 10000 10000 v_asyy
variable        aszz atom c_s[3]*v_stressfactor
fix             aszz all ave/atom 1 10000 10000 v_aszz
variable        asxy atom c_s[4]*v_stressfactor
fix             asxy all ave/atom 1 10000 10000 v_asxy
variable        asxz atom c_s[5]*v_stressfactor
fix             asxz all ave/atom 1 10000 10000 v_asxz
variable        asyz atom c_s[6]*v_stressfactor
fix             asyz all ave/atom 1 10000 10000 v_asyz

# Storing Initial length
variable 		tmp equal "lx"
variable 		L0 equal ${tmp}
variable 		L0 equal 65.7989151578392
print 			"Initial Length, L0: ${L0}"
Initial Length, L0: 65.7989151578392

# ------------------------ DEFORMATION ------------------------------
fix 			1 all nvt temp ${T} ${T} 0.1 drag 1
fix 			1 all nvt temp 300 ${T} 0.1 drag 1
fix 			1 all nvt temp 300 300 0.1 drag 1
fix 			2 all deform 1 x erate ${SR} units box remap x
fix 			2 all deform 1 x erate 0.001 units box remap x

# Output strain and stress info to file
# for units metal, pressure is in [bars] = 100 [kPa] = 1/10000 [GPa]
# p2, p3, p4 are in GPa
variable 		strain equal "(lx - v_L0)/v_L0"
variable 		p1 equal "v_strain"
variable 		p2 equal "-pxx/10000"
variable 		p3 equal "-pyy/10000"
variable 		p4 equal "-pzz/10000"

# ------------------------ PRINTING DATA ------------------------------

# Display thermo
thermo 			1000
thermo_style 	custom step v_p1 v_p2 v_p3 v_p4 temp press vol pe ke etotal

#dump_modify
dump 			1 all custom 1000 dump.tensile id type x y z c_centrosym c_stress[1] c_stress[2] c_stress[3] c_stress[4] c_stress[5] c_stress[6]

run 			${DS}
run 			500000
Per MPI rank memory allocation (min/avg/max) = 107.5 | 107.5 | 107.5 Mbytes
   Step          v_p1           v_p2           v_p3           v_p4           Temp          Press          Volume         PotEng         KinEng         TotEng    
         0   4.3194799e-16 -0.045975975    0.12552756     0.017643547    302.91842     -323.98377      285219.41     -96190.175      626.4453      -95563.73     
      1000   0.001          0.18000055     0.081295032    0.0033195539   306.01712     -882.05046      285504.63     -96178.598      632.85353     -95545.744    
      2000   0.002          0.48883957    -0.015510123    0.17777006     307.17184     -2170.3317      285789.85     -96176.908      635.24153     -95541.666    
      3000   0.003          0.55810586     0.10458916     0.29515303     304.58819     -3192.8268      286075.07     -96168.36       629.89845     -95538.461    
      4000   0.004          0.77652498     0.12486134     0.35512392     305.21882     -4188.3674      286360.29     -96167.863      631.20261     -95536.661    
      5000   0.005          0.65750349     0.31793956     0.44869248     301.46096     -4747.1184      286645.51     -96163.517      623.43123     -95540.086    
      6000   0.006          0.90888614     0.40617965     0.41211906     305.15283     -5757.2828      286930.73     -96168.115      631.06615     -95537.049    
      7000   0.007          0.93864507     0.50918383     0.56011801     306.12013     -6693.1564      287215.95     -96164.241      633.06654     -95531.174    
      8000   0.008          1.1874554      0.47745208     0.63324411     306.52957     -7660.5053      287501.17     -96159.998      633.91329     -95526.085    
      9000   0.009          1.1119117      0.75701303     0.64065467     305.58359     -8365.2645      287786.39     -96152.663      631.95696     -95520.706    
     10000   0.01           1.3078466      0.72681973     0.8514146      305.73763     -9620.2697      288071.61     -96147.96       632.27552     -95515.684    
     11000   0.011          1.5407476      0.59635514     0.95406908     305.03711     -10303.906      288356.82     -96144.93       630.82682     -95514.103    
     12000   0.012          1.5925096      0.92497737     0.80595454     304.87514     -11078.138      288642.04     -96141.069      630.49186     -95510.577    
     13000   0.013          1.5430377      1.0828298      1.0115478      304.92447     -12124.717      288927.26     -96135.992      630.59389     -95505.399    
     14000   0.014          1.963529       0.90193444     0.9672671      304.58052     -12775.769      289212.48     -96134.348      629.88258     -95504.466    
     15000   0.015          1.8931252      1.066735       1.1012634      305.94302     -13537.079      289497.7      -96124.09       632.70027     -95491.389    
     16000   0.016          2.0306775      1.3718765      1.0336202      304.4719      -14787.247      289782.92     -96112.52       629.65797     -95482.862    
     17000   0.017          2.2335917      1.3035323      1.1401599      302.37194     -15590.947      290068.14     -96109.921      625.31518     -95484.606    
     18000   0.018          2.2154293      1.3479146      1.2958832      305.95226     -16197.424      290353.36     -96104.238      632.71939     -95471.518    
     19000   0.019          2.4490663      1.3828705      1.3973556      305.86213     -17430.975      290638.58     -96095.686      632.53299     -95463.153    
     20000   0.02           2.4038652      1.5629575      1.4059989      305.10715     -17909.405      290923.8      -96094.524      630.97166     -95463.552    
     21000   0.021          2.6692764      1.5117737      1.3910579      306.85373     -18573.693      291209.02     -96091.008      634.58367     -95456.425    
     22000   0.022          2.6196825      1.5368965      1.7456657      305.09339     -19674.149      291494.24     -96076.609      630.94321     -95445.665    
     23000   0.023          2.7902033      1.6334693      1.6759032      304.2722      -20331.919      291779.46     -96068.582      629.24498     -95439.337    
     24000   0.024          2.8116483      1.7538445      1.8503047      307.13771     -21385.992      292064.68     -96070.018      635.17093     -95434.847    
     25000   0.025          2.9572299      1.7789291      1.8091237      303.57169     -21817.609      292349.9      -96058.899      627.79629     -95431.102    
     26000   0.026          3.119409       1.7990513      1.8272389      304.02814     -22485.664      292635.12     -96047.89       628.74024     -95419.15     
     27000   0.027          3.1591031      1.946009       1.9256326      305.89336     -23435.815      292920.34     -96048.791      632.59758     -95416.193    
     28000   0.028          3.2063463      2.0452215      1.9825096      306.02796     -24113.591      293205.55     -96040.315      632.87593     -95407.439    
     29000   0.029          3.4427286      2.0374939      2.0171775      301.45525     -24991.333      293490.77     -96026.531      623.41942     -95403.111    
     30000   0.03           3.489081       2.0685622      2.1244169      304.6483      -25606.867      293775.99     -96026.352      630.02276     -95396.329    
     31000   0.031          3.5081056      2.2335856      2.1519766      303.82597     -26312.226      294061.21     -96017.309      628.32215     -95388.987    
     32000   0.032          3.6920974      2.2099055      2.1719263      303.60689     -26913.097      294346.43     -96006.367      627.86909     -95378.498    
     33000   0.033          3.7419723      2.4129227      2.2521631      304.03607     -28023.527      294631.65     -95991.834      628.75665     -95363.077    
     34000   0.034          3.8350071      2.3457865      2.3389853      306.16343     -28399.263      294916.87     -95992.72       633.1561      -95359.564    
     35000   0.035          3.8767611      2.386594       2.5235838      302.36081     -29289.796      295202.09     -95977.43       625.29216     -95352.137    
     36000   0.036          4.0454299      2.4844466      2.5249382      306.52259     -30182.716      295487.31     -95973.516      633.89886     -95339.617    
     37000   0.037          3.9985409      2.4495507      2.5987923      303.85782     -30156.28       295772.53     -95962.059      628.38802     -95333.671    
     38000   0.038          4.0411521      2.6756698      2.6631672      300.82746     -31266.63       296057.75     -95948.221      622.12113     -95326.1      
     39000   0.039          4.1791897      2.7061011      2.7440999      303.93089     -32097.969      296342.97     -95945.585      628.53912     -95317.046    
     40000   0.04           4.2710363      2.7957263      2.7377554      303.59232     -32681.726      296628.19     -95931.306      627.83895     -95303.467    
     41000   0.041          4.4415087      2.7186813      2.9177869      305.1996      -33593.257      296913.41     -95926.094      631.16287     -95294.931    
     42000   0.042          4.3723841      2.9047529      2.9934823      302.12505     -34235.398      297198.63     -95908.919      624.8046      -95284.114    
     43000   0.043          4.7046348      2.810079       2.9639443      305.86787     -34928.86       297483.85     -95907.898      632.54488     -95275.353    
     44000   0.044          4.525612       3.0407325      3.0855706      306.36648     -35506.383      297769.07     -95896.9        633.57601     -95263.324    
     45000   0.045          4.667873       3.1727218      3.058639       304.58012     -36330.779      298054.28     -95886.876      629.88175     -95256.994    
     46000   0.046          4.7940444      2.9777473      3.1935994      302.60839     -36551.303      298339.5      -95873.503      625.80415     -95247.699    
     47000   0.047          4.8905585      3.1114951      3.1838295      304.07448     -37286.277      298624.72     -95870.856      628.83608     -95242.02     
     48000   0.048          4.9548527      3.232022       3.2712543      305.95573     -38193.763      298909.94     -95859.074      632.72657     -95226.347    
     49000   0.049          4.8743892      3.2674951      3.3666216      303.00856     -38361.686      299195.16     -95842.953      626.63171     -95216.321    
     50000   0.05           4.8547591      3.4451055      3.4099894      305.48703     -39032.847      299480.38     -95837.128      631.75729     -95205.37     
     51000   0.051          4.962875       3.536848       3.4904717      304.04879     -39967.316      299765.6      -95824.893      628.78296     -95196.11     
     52000   0.052          5.1097217      3.4908525      3.5293581      302.61408     -40433.108      300050.82     -95808.633      625.81592     -95182.817    
     53000   0.053          5.149568       3.7849299      3.4208862      306.64442     -41184.614      300336.04     -95804.812      634.15079     -95170.662    
     54000   0.054          5.2129681      3.6361276      3.6636606      302.06871     -41709.188      300621.26     -95786.319      624.68809     -95161.631    
     55000   0.055          5.3915205      3.5976383      3.6307903      303.67849     -42066.497      300906.48     -95773.003      628.01716     -95144.986    
     56000   0.056          5.4584108      3.6772389      3.7522372      304.69979     -42959.623      301191.7      -95769.323      630.12924     -95139.194    
     57000   0.057          5.5976769      3.8325212      3.6584296      304.07916     -43628.759      301476.92     -95759.282      628.84575     -95130.436    
     58000   0.058          5.5129057      3.7765923      3.977306       301.43897     -44222.68       301762.14     -95739.564      623.38575     -95116.178    
     59000   0.059          5.6005563      3.7931635      4.0200785      304.69158     -44712.661      302047.36     -95736.43       630.11226     -95106.318    
     60000   0.06           5.6197718      3.828196       4.1105004      303.43292     -45194.894      302332.58     -95724.46       627.50932     -95096.95     
     61000   0.061          5.7505792      3.9504692      3.996931       304.40429     -45659.931      302617.8      -95716.217      629.51813     -95086.699    
     62000   0.062          5.8346988      4.0353316      4.0466452      303.79814     -46388.919      302903.01     -95699.038      628.26459     -95070.773    
     63000   0.063          5.8733832      4.1159179      4.0813233      303.88897     -46902.081      303188.23     -95687.12       628.45243     -95058.668    
     64000   0.064          5.8738457      4.1461228      4.2780478      303.65126     -47660.055      303473.45     -95671.657      627.96085     -95043.696    
     65000   0.065          5.9426206      4.3122471      4.1233473      303.31767     -47927.383      303758.67     -95661.389      627.27096     -95034.118    
     66000   0.066          6.0184518      4.2739855      4.3024653      301.58308     -48649.675      304043.89     -95649.378      623.68379     -95025.694    
     67000   0.067          6.2039652      4.2450506      4.2803047      302.911       -49097.735      304329.11     -95637.006      626.42997     -95010.576    
     68000   0.068          6.1959823      4.3363377      4.3478052      302.9745      -49600.418      304614.33     -95625.67       626.56129     -94999.108    
     69000   0.069          6.4634772      4.2914012      4.4057378      304.19618     -50535.387      304899.55     -95610.545      629.08775     -94981.457    
     70000   0.07           6.3347839      4.4902169      4.3633436      304.35857     -50627.814      305184.77     -95600.371      629.42359     -94970.947    
     71000   0.071          6.3452045      4.4923266      4.544471       304.63353     -51273.34       305469.99     -95585.56       629.99221     -94955.567    
     72000   0.072          6.4567419      4.4342052      4.6289302      302.01049     -51732.925      305755.21     -95564.034      624.56768     -94939.467    
     73000   0.073          6.5651662      4.443623       4.6681146      304.62403     -52256.346      306040.43     -95559.62       629.97256     -94929.648    
     74000   0.074          6.5560323      4.6008         4.7578248      305.75123     -53048.857      306325.65     -95554.641      632.30365     -94922.337    
     75000   0.075          6.5770789      4.7707243      4.6353033      301.74938     -53277.022      306610.87     -95533.841      624.02768     -94909.814    
     76000   0.076          6.6333327      4.7646546      4.8100033      300.12755     -54026.636      306896.09     -95520.688      620.67369     -94900.015    
     77000   0.077          6.6612941      4.8789095      4.7201578      301.86844     -54201.205      307181.31     -95507.738      624.27392     -94883.465    
     78000   0.078          6.8553769      4.6855811      4.8428671      305.18698     -54612.751      307466.53     -95501.723      631.13677     -94870.586    
     79000   0.079          6.7487024      4.9305068      4.8561607      303.15726     -55117.9        307751.74     -95484.995      626.93924     -94858.056    
     80000   0.08           6.7484164      4.9560699      5.0503711      303.61513     -55849.525      308036.96     -95471.695      627.88614     -94843.809    
     81000   0.081          6.9156983      4.9795884      4.9843675      303.82399     -56265.514      308322.18     -95459.802      628.31806     -94831.484    
     82000   0.082          6.9186383      4.9432201      5.2010345      302.28035     -56876.309      308607.4      -95444.434      625.12575     -94819.308    
     83000   0.083          6.9918591      5.0450977      5.1089898      302.14875     -57153.155      308892.62     -95433.757      624.8536      -94808.904    
     84000   0.084          7.1507664      4.9602421      5.1231441      305.06508     -57447.176      309177.84     -95423.552      630.88468     -94792.668    
     85000   0.085          7.0554188      5.1506338      5.1341368      301.89228     -57800.631      309463.06     -95402.717      624.32321     -94778.394    
     86000   0.086          7.1709857      5.1227146      5.217602       302.18521     -58371.008      309748.28     -95389.427      624.92901     -94764.498    
     87000   0.087          6.9957229      5.2970496      5.3883802      304.55543     -58937.175      310033.5      -95379.992      629.83069     -94750.161    
     88000   0.088          7.1352035      5.2387284      5.427216       303.6749      -59337.16       310318.72     -95366.106      628.00972     -94738.096    
     89000   0.089          7.1069298      5.3698064      5.4892517      302.83499     -59886.626      310603.94     -95344.193      626.27277     -94717.92     
     90000   0.09           7.141052       5.3965085      5.5684629      305.37773     -60353.411      310889.16     -95339.162      631.53124     -94707.631    
     91000   0.091          7.2952253      5.4564411      5.45801        304.06455     -60698.921      311174.38     -95323.909      628.81554     -94695.093    
     92000   0.092          7.4248929      5.4040785      5.5521265      304.57176     -61270.326      311459.6      -95309.591      629.86447     -94679.727    
     93000   0.093          7.3938822      5.4730337      5.5883072      300.73455     -61517.411      311744.82     -95292.381      621.92898     -94670.452    
     94000   0.094          7.34223        5.4652887      5.7587186      300.64148     -61887.458      312030.04     -95272.464      621.73652     -94650.727    
     95000   0.095          7.4409318      5.5143269      5.7167345      302.64331     -62239.977      312315.26     -95265.512      625.87637     -94639.635    
     96000   0.096          7.6062603      5.5689073      5.6711739      302.38987     -62821.138      312600.47     -95250.859      625.35226     -94625.507    
     97000   0.097          7.6051805      5.6387037      5.7101924      304.90874     -63180.255      312885.69     -95242.979      630.56136     -94612.418    
     98000   0.098          7.7053306      5.7645076      5.6883369      300.89895     -63860.584      313170.91     -95218.616      622.26897     -94596.347    
     99000   0.099          7.6171847      5.6531771      5.8552616      306.45145     -63752.078      313456.13     -95217.895      633.75173     -94584.143    
    100000   0.1            7.7169614      5.659478       5.8825252      304.59908     -64196.549      313741.35     -95195.066      629.92096     -94565.145    
    101000   0.101          7.6970881      5.7784023      6.0172356      305.02113     -64975.753      314026.57     -95179.961      630.79378     -94549.168    
    102000   0.102          7.764848       5.8875368      5.9045531      304.7164      -65189.793      314311.79     -95170.246      630.1636      -94540.082    
    103000   0.103          7.8045148      5.8677899      5.9629895      301.91408     -65450.981      314597.01     -95148.272      624.3683      -94523.904    
    104000   0.104          7.7312326      5.9719984      6.1113999      300.87708     -66048.77       314882.23     -95128.875      622.22376     -94506.651    
    105000   0.105          7.7897796      6.0920151      6.0683791      303.40127     -66500.579      315167.45     -95118.938      627.44386     -94491.494    
    106000   0.106          7.8344196      6.0648837      6.0181886      303.48272     -66391.639      315452.67     -95105.316      627.6123      -94477.703    
    107000   0.107          7.8659077      6.0927565      6.1987967      303.09309     -67191.536      315737.89     -95090.814      626.80653     -94464.008    
    108000   0.108          7.8328158      6.1832418      6.2432676      304.16997     -67531.084      316023.11     -95077.427      629.03356     -94448.394    
    109000   0.109          7.9890751      6.154232       6.3461613      304.04061     -68298.228      316308.33     -95059.265      628.76603     -94430.499    
    110000   0.11           8.0889199      6.1992572      6.2734531      303.98722     -68538.767      316593.55     -95045.579      628.65563     -94416.923    
    111000   0.111          7.9977641      6.2582123      6.3092919      303.18309     -68550.894      316878.77     -95026.522      626.99266     -94399.529    
    112000   0.112          8.086177       6.1490551      6.2860409      302.98848     -68404.243      317163.98     -95013.965      626.5902      -94387.374    
    113000   0.113          8.2517255      6.2562008      6.307096       306.76005     -69383.408      317449.2      -95002.828      634.38992     -94368.438    
    114000   0.114          8.1129091      6.4143319      6.291454       306.03737     -69395.65       317734.42     -94986.071      632.89539     -94353.176    
    115000   0.115          8.0763085      6.3702247      6.4352165      304.21996     -69605.832      318019.64     -94971.053      629.13693     -94341.916    
    116000   0.116          8.2742379      6.2903404      6.4686837      304.80901     -70110.874      318304.86     -94957.113      630.3551      -94326.758    
    117000   0.117          8.2004248      6.4277479      6.536581       304.98853     -70549.179      318590.08     -94941.282      630.72636     -94310.556    
    118000   0.118          8.366234       6.5315551      6.3519636      300.63727     -70832.509      318875.3      -94918.394      621.72782     -94296.666    
    119000   0.119          8.1893108      6.540522       6.5980845      302.35404     -71093.058      319160.52     -94906.355      625.27814     -94281.076    
    120000   0.12           8.4747565      6.4745663      6.517892       305.18443     -71557.383      319445.74     -94894.407      631.13149     -94263.275    
    121000   0.121          8.3958781      6.4626427      6.6232005      303.42422     -71605.738      319730.96     -94877.655      627.49131     -94250.164    
    122000   0.122          8.4594012      6.5524166      6.5912661      304.55797     -72010.28       320016.18     -94864.347      629.83595     -94234.511    
    123000   0.123          8.6152528      6.5331989      6.5849175      300.26491     -72444.564      320301.4      -94839.634      620.95776     -94218.676    
    124000   0.124          8.5494008      6.6266185      6.6284072      303.62224     -72681.421      320586.62     -94832.959      627.90083     -94205.058    
    125000   0.125          8.6810138      6.6707938      6.5205585      302.18299     -72907.887      320871.84     -94817.197      624.92441     -94192.272    
    126000   0.126          8.6179535      6.5485688      6.7494801      300.55673     -73053.341      321157.06     -94798.823      621.56125     -94177.261    
    127000   0.127          8.5695536      6.7297756      6.77449        304.19871     -73579.397      321442.28     -94786.548      629.09299     -94157.455    
    128000   0.128          8.5900796      6.7122361      6.79314        306.38729     -73651.519      321727.5      -94769.932      633.61904     -94136.313    
    129000   0.129          8.4958933      6.8364265      6.7656508      304.17215     -73659.902      322012.71     -94753.866      629.03806     -94124.828    
    130000   0.13           8.7095836      6.7783623      6.776261       301.41711     -74214.023      322297.93     -94738.529      623.34056     -94115.189    
    131000   0.131          8.6922248      6.6710697      7.0081862      302.69358     -74571.602      322583.15     -94724.447      625.98034     -94098.467    
    132000   0.132          8.6245541      6.9047118      6.9317104      300.65608     -74869.921      322868.37     -94701.512      621.76672     -94079.745    
    133000   0.133          8.8003445      6.910381       6.8288336      301.902       -75131.864      323153.59     -94686.055      624.34332     -94061.711    
    134000   0.134          8.6730257      6.9257862      6.9952521      302.35064     -75313.546      323438.81     -94674.096      625.27113     -94048.825    
    135000   0.135          8.9641391      6.8031016      6.9390631      302.35026     -75687.68       323724.03     -94657.573      625.27033     -94032.303    
    136000   0.136          8.8578933      6.8667202      7.0954351      303.95116     -76066.829      324009.25     -94645.328      628.58104     -94016.747    
    137000   0.137          8.8736204      6.8552035      6.9696364      302.7577      -75661.535      324294.47     -94626.143      626.11294     -94000.03     
    138000   0.138          8.8843188      6.9511925      6.9881097      304.49688     -76078.737      324579.69     -94614.737      629.70961     -93985.027    
    139000   0.139          8.8153913      7.0295583      7.0731066      303.56469     -76393.521      324864.91     -94598.476      627.7818      -93970.694    
    140000   0.14           8.9306661      7.1077044      6.9938595      304.17314     -76774.1        325150.13     -94580.44       629.04011     -93951.399    
    141000   0.141          9.0015281      7.0461078      7.0740163      302.63532     -77072.174      325435.35     -94558.881      625.85985     -93933.022    
    142000   0.142          9.0742159      7.0378613      7.0725224      303.0528      -77281.999      325720.57     -94546.844      626.72321     -93920.121    
    143000   0.143          9.0598124      7.1167002      7.0771405      304.12607     -77512.177      326005.79     -94532.836      628.94276     -93903.893    
    144000   0.144          9.0175479      7.1505699      7.0413355      301.29595     -77364.844      326291.01     -94511.726      623.08999     -93888.636    
    145000   0.145          8.9736619      7.2058553      7.165484       305.89446     -77816.671      326576.23     -94504.429      632.59985     -93871.829    
    146000   0.146          9.0553748      7.2794349      7.1120011      304.06523     -78156.036      326861.44     -94484.053      628.81694     -93855.236    
    147000   0.147          8.9700472      7.1664771      7.2689571      303.86569     -78018.271      327146.66     -94472.353      628.40429     -93843.948    
    148000   0.148          9.1296736      7.1858102      7.2244936      302.02942     -78466.591      327431.88     -94446.388      624.60682     -93821.781    
    149000   0.149          9.1036397      7.1695666      7.2630114      302.504       -78454.059      327717.1      -94429.65       625.58828     -93804.062    
    150000   0.15           9.1438221      7.2253717      7.3052636      305.41525     -78914.858      328002.32     -94419.731      631.60883     -93788.122    
    151000   0.151          9.2201846      7.2254861      7.2181175      301.05408     -78879.294      328287.54     -94399.331      622.58978     -93776.741    
    152000   0.152          9.3384564      7.2475719      7.311127       304.92871     -79657.184      328572.76     -94385.919      630.60266     -93755.317    
    153000   0.153          9.3421961      7.1688316      7.2735779      302.62911     -79282.019      328857.98     -94367.174      625.84701     -93741.327    
    154000   0.154          9.2651515      7.2387305      7.3645348      300.50617     -79561.389      329143.2      -94348.427      621.45669     -93726.97     
    155000   0.155          9.2823063      7.1822067      7.3975108      299.81996     -79540.08       329428.42     -94330.877      620.0376      -93710.839    
    156000   0.156          9.2720098      7.2550757      7.3797702      300.95056     -79689.519      329713.64     -94317.443      622.3757      -93695.068    
    157000   0.157          9.4168466      7.2251921      7.2865665      300.54968     -79762.018      329998.86     -94302.065      621.54668     -93680.518    
    158000   0.158          9.3478         7.3825589      7.3167537      303.30038     -80157.042      330284.08     -94291.64       627.23522     -93664.405    
    159000   0.159          9.3945801      7.2497981      7.3615521      303.88305     -80019.768      330569.3      -94269.637      628.44019     -93641.197    
    160000   0.16           9.3434655      7.3717491      7.4231115      302.62442     -80461.087      330854.52     -94255.453      625.8373      -93629.615    
    161000   0.161          9.3080376      7.3413764      7.6057563      303.83617     -80850.568      331139.74     -94241.304      628.34325     -93612.961    
    162000   0.162          9.415543       7.4536434      7.4178272      304.01951     -80956.712      331424.96     -94225.459      628.72241     -93596.737    
    163000   0.163          9.3217486      7.4160434      7.5510394      304.4546      -80962.771      331710.17     -94211.722      629.62219     -93582.1      
    164000   0.164          9.5280099      7.3333693      7.576488       303.3658      -81459.557      331995.39     -94194.171      627.37051     -93566.8      
    165000   0.165          9.4615058      7.4584182      7.482066       303.35788     -81339.966      332280.61     -94179.284      627.35413     -93551.93     
    166000   0.166          9.356942       7.4966837      7.6796679      303.4169      -81777.645      332565.83     -94161.214      627.47617     -93533.738    
    167000   0.167          9.5336671      7.3494254      7.6208809      304.76672     -81679.911      332851.05     -94147.5        630.26765     -93517.232    
    168000   0.168          9.5073289      7.4520101      7.6337161      305.02382     -81976.851      333136.27     -94132.42       630.79934     -93501.621    
    169000   0.169          9.5446235      7.4821448      7.641026       306.32014     -82225.981      333421.49     -94113.887      633.48017     -93480.407    
    170000   0.17           9.5983948      7.4004892      7.6266307      305.36922     -82085.049      333706.71     -94100.77       631.51364     -93469.256    
    171000   0.171          9.6350867      7.446141       7.5226107      305.91823     -82012.795      333991.93     -94084.947      632.64902     -93452.298    
    172000   0.172          9.4760468      7.636223       7.5224058      303.09595     -82115.585      334277.15     -94062.187      626.81245     -93435.375    
    173000   0.173          9.6522573      7.4440825      7.560162       305.27884     -82188.34       334562.37     -94050.628      631.32673     -93419.302    
    174000   0.174          9.6222665      7.6166576      7.6074346      302.36979     -82821.196      334847.59     -94031.45       625.31073     -93406.139    
    175000   0.175          9.5658235      7.6127746      7.5758673      305.39247     -82514.885      335132.81     -94020.958      631.56173     -93389.397    
    176000   0.176          9.5438726      7.5886025      7.6405126      304.37435     -82576.626      335418.03     -93998.599      629.45623     -93369.143    
    177000   0.177          9.5905415      7.5797512      7.646917       301.50969     -82724.032      335703.25     -93980.547      623.53201     -93357.015    
    178000   0.178          9.6385451      7.6020904      7.5390361      303.57974     -82598.905      335988.47     -93971.029      627.81295     -93343.216    
    179000   0.179          9.6885998      7.5654743      7.597957       301.13502     -82840.104      336273.69     -93946.112      622.75718     -93323.355    
    180000   0.18           9.7066906      7.5138202      7.6619041      301.45823     -82941.383      336558.9      -93935.614      623.42559     -93312.188    
    181000   0.181          9.6818861      7.6076563      7.6846752      303.76278     -83247.392      336844.12     -93917.334      628.19148     -93289.143    
    182000   0.182          9.623474       7.5999175      7.7319129      302.50718     -83184.348      337129.34     -93900.052      625.59485     -93274.457    
    183000   0.183          9.7455984      7.6291565      7.7304325      304.72828     -83683.958      337414.56     -93887.712      630.18816     -93257.524    
    184000   0.184          9.6093624      7.7140367      7.7700693      306.6359      -83644.895      337699.78     -93874.792      634.13319     -93240.659    
    185000   0.185          9.6889933      7.614646       7.8001382      301.90746     -83679.258      337985        -93849.357      624.35461     -93225.002    
    186000   0.186          9.7442293      7.5151949      7.7914147      304.13455     -83502.796      338270.22     -93840.019      628.96031     -93211.058    
    187000   0.187          9.7098849      7.6643615      7.6930081      305.31153     -83557.515      338555.44     -93823.81       631.39434     -93192.416    
    188000   0.188          9.6506489      7.6293023      7.7856682      303.93224     -83552.065      338840.66     -93804.082      628.54192     -93175.54     
    189000   0.189          9.672982       7.6741725      7.8315895      302.07137     -83929.147      339125.88     -93785.013      624.69358     -93160.319    
    190000   0.19           9.7586421      7.7597497      7.6837452      303.95242     -84007.123      339411.1      -93771.36       628.58365     -93142.776    
    191000   0.191          9.6674979      7.7204701      7.8795294      302.224       -84224.991      339696.32     -93752.246      625.00923     -93127.237    
    192000   0.192          9.6785056      7.6694123      7.7432573      303.69882     -83637.25       339981.54     -93741.91       628.05921     -93113.851    
    193000   0.193          9.7314548      7.7198234      7.7206667      303.5579      -83906.483      340266.76     -93719.393      627.76777     -93091.626    
    194000   0.194          9.6546798      7.7448217      7.7408327      303.66018     -83801.114      340551.98     -93708.734      627.97929     -93080.754    
    195000   0.195          9.7659007      7.7187701      7.7600924      304.14743     -84149.211      340837.2      -93694.534      628.98694     -93065.547    
    196000   0.196          9.677416       7.7401241      7.8516079      303.69588     -84230.493      341122.42     -93674.827      628.05312     -93046.773    
    197000   0.197          9.7523922      7.7631262      7.8545896      305.35045     -84567.027      341407.63     -93660.685      631.47482     -93029.21     
    198000   0.198          9.7615016      7.791594       7.787944       302.40837     -84470.132      341692.85     -93644.394      625.3905      -93019.004    
    199000   0.199          9.7794577      7.6629417      7.8984657      305.42387     -84469.55       341978.07     -93630.03       631.62665     -92998.404    
    200000   0.2            9.7995846      7.6940916      7.8516989      305.86923     -84484.584      342263.29     -93611.397      632.54768     -92978.849    
    201000   0.201          9.8124334      7.7265506      7.8359028      301.34855     -84582.956      342548.51     -93591.834      623.19875     -92968.635    
    202000   0.202          9.8447413      7.7785153      7.7969924      303.32813     -84734.163      342833.73     -93579.841      627.2926      -92952.548    
    203000   0.203          9.7868949      7.8085782      7.7785995      304.7677      -84580.242      343118.95     -93567.414      630.26967     -92937.145    
    204000   0.204          9.914583       7.646639       7.8928726      302.99415     -84846.982      343404.17     -93552.43       626.60191     -92925.828    
    205000   0.205          9.7754164      7.7485026      7.8281422      301.64627     -84506.871      343689.39     -93528.672      623.81445     -92904.858    
    206000   0.206          9.8407137      7.7105619      7.7974151      307.25781     -84495.635      343974.61     -93524.1        635.41931     -92888.681    
    207000   0.207          9.8907087      7.7658674      7.7356013      303.59884     -84640.591      344259.83     -93503.866      627.85244     -92876.014    
    208000   0.208          9.9787174      7.6614466      7.7249107      306.61913     -84550.249      344545.05     -93495.212      634.09851     -92861.114    
    209000   0.209          9.8813794      7.8334054      7.8112709      303.01849     -85086.852      344830.27     -93472.453      626.65226     -92845.801    
    210000   0.21           9.7933815      7.7812797      7.8483198      305.39447     -84743.27       345115.49     -93457.148      631.56586     -92825.582    
    211000   0.211          9.8303257      7.8283383      7.8768392      301.49752     -85118.344      345400.71     -93431.227      623.50684     -92807.72     
    212000   0.212          9.8222084      7.8317102      7.7750371      303.02284     -84763.186      345685.93     -93420.921      626.66125     -92794.26     
    213000   0.213          9.7787496      7.7849832      7.8512929      305.44756     -84716.752      345971.15     -93407.957      631.67566     -92776.282    
    214000   0.214          9.8518445      7.8269373      7.8689684      302.39714     -85159.168      346256.36     -93386.603      625.36728     -92761.236    
    215000   0.215          9.9323071      7.8283885      7.8296002      305.41528     -85300.986      346541.58     -93375.177      631.60889     -92743.568    
    216000   0.216          9.8675608      7.8066196      7.8666505      301.64406     -85136.103      346826.8      -93353.821      623.80989     -92730.012    
    217000   0.217          9.8176785      7.7828701      7.9401134      305.00187     -85135.54       347112.02     -93342.894      630.75396     -92712.14     
    218000   0.218          9.8133617      7.8005032      7.8897558      302.62322     -85012.069      347397.24     -93324.065      625.83482     -92698.231    
    219000   0.219          9.8335526      7.7667242      7.9286038      300.96096     -85096.269      347682.46     -93305.388      622.39722     -92682.991    
    220000   0.22           9.9465391      7.8388351      7.8432026      302.17376     -85428.589      347967.68     -93294.021      624.90534     -92669.116    
    221000   0.221          9.9272334      7.8127816      7.9093136      303.91904     -85497.762      348252.9      -93279.121      628.51462     -92650.606    
    222000   0.222          9.9226759      7.8971949      7.9398067      304.16762     -85865.591      348538.12     -93260.884      629.0287      -92631.855    
    223000   0.223          9.8111916      7.9241843      7.9572782      305.89515     -85642.18       348823.34     -93253.887      632.60128     -92621.286    
    224000   0.224          9.7896873      7.8569686      7.9074224      304.18756     -85180.261      349108.56     -93232.508      629.06993     -92603.439    
    225000   0.225          9.8180733      7.9202831      7.9604896      306.1352      -85662.82       349393.78     -93221.242      633.09771     -92588.144    
    226000   0.226          9.8227105      7.8757371      8.0024215      303.48828     -85669.563      349679        -93200.1        627.6238      -92572.477    
    227000   0.227          9.8783247      7.8482592      8.0075081      302.93504     -85780.307      349964.22     -93188.352      626.47968     -92561.872    
    228000   0.228          9.9700473      7.9229558      7.9360182      304.7883      -86096.738      350249.44     -93171.668      630.31228     -92541.355    
    229000   0.229          9.9109798      7.8494242      7.9563209      301.03948     -85722.417      350534.66     -93152.522      622.55959     -92529.963    
    230000   0.23           9.9945738      7.9214459      7.9707402      307.15129     -86289.199      350819.88     -93141.63       635.19901     -92506.431    
    231000   0.231          9.9822784      7.9645094      7.8943097      308.39301     -86136.992      351105.09     -93131.231      637.76693     -92493.464    
    232000   0.232          9.8825501      7.8563479      8.075141       303.58353     -86046.797      351390.31     -93106.257      627.82077     -92478.436    
    233000   0.233          9.8569965      7.9734205      8.0251645      304.15855     -86185.272      351675.53     -93092.954      629.00995     -92463.944    
    234000   0.234          9.8827609      7.9379368      8.0153247      303.41254     -86120.075      351960.75     -93077.391      627.46717     -92449.924    
    235000   0.235          9.9452847      7.8439721      7.9693227      304.35475     -85861.932      352245.97     -93062.961      629.41569     -92433.546    
    236000   0.236          9.935838       8.0191833      7.9754779      303.66359     -86434.997      352531.19     -93045.35       627.98635     -92417.363    
    237000   0.237          9.9737072      7.8442864      7.9719999      301.73952     -85966.645      352816.41     -93026.416      624.00731     -92402.408    
    238000   0.238          9.9837351      7.9058301      7.9891296      303.65312     -86262.316      353101.63     -93016.784      627.96469     -92388.819    
    239000   0.239          9.9654725      7.9421779      7.9689335      303.23179     -86255.279      353386.85     -92995.201      627.09337     -92368.108    
    240000   0.24           9.9825776      7.9171912      8.027565       304.27904     -86424.446      353672.07     -92978.508      629.25911     -92349.249    
    241000   0.241          9.9005796      7.9027152      7.9866903      305.98662     -85966.617      353957.29     -92970.894      632.79045     -92338.103    
    242000   0.242          9.8828598      7.9283901      8.0140754      304.65419     -86084.418      354242.51     -92949.125      630.03493     -92319.091    
    243000   0.243          9.9561227      7.9285774      7.9796916      305.07437     -86214.639      354527.73     -92933.122      630.90388     -92302.218    
    244000   0.244          9.9600007      7.9258164      7.9629635      306.43965     -86162.602      354812.95     -92918.756      633.72732     -92285.028    
    245000   0.245          9.8415208      7.9607451      8.1005181      304.91359     -86342.613      355098.17     -92897.039      630.57137     -92266.468    
    246000   0.246          10.008097      7.9285968      7.9507205      302.47439     -86291.381      355383.39     -92882.731      625.52705     -92257.204    
    247000   0.247          9.9680252      7.9806862      7.9508269      303.29777     -86331.795      355668.61     -92869.848      627.22982     -92242.618    
    248000   0.248          9.9804378      7.8147223      7.9878967      305.02684     -85943.523      355953.82     -92859.184      630.8056      -92228.379    
    249000   0.249          9.9175826      7.8371592      8.0422393      305.10911     -85989.937      356239.04     -92841.277      630.97574     -92210.302    
    250000   0.25           9.9565231      7.8818887      7.9921398      304.95232     -86101.838      356524.26     -92830.652      630.65148     -92200.001    
    251000   0.251          9.9204728      7.8637625      8.0772338      304.93259     -86204.897      356809.48     -92811.276      630.61068     -92180.665    
    252000   0.252          9.8766116      7.8427535      8.0948705      305.00176     -86047.452      357094.7      -92795.047      630.75373     -92164.293    
    253000   0.253          9.8706054      7.9425355      7.975564       303.95115     -85962.35       357379.92     -92776.251      628.58102     -92147.67     
    254000   0.254          9.9004258      7.8243929      8.0757282      302.31544     -86001.823      357665.14     -92761.927      625.19832     -92136.729    
    255000   0.255          9.9124107      7.8632297      7.9534599      303.02888     -85763.668      357950.36     -92747.066      626.67375     -92120.392    
    256000   0.256          9.8569178      7.8831063      8.0781014      301.16732     -86060.418      358235.58     -92725.941      622.82398     -92103.117    
    257000   0.257          9.8480657      7.9603944      7.9986068      303.0301      -86023.556      358520.8      -92714.755      626.67627     -92088.079    
    258000   0.258          9.9829815      7.9329322      7.9414469      302.61322     -86191.202      358806.02     -92697.958      625.81413     -92072.144    
    259000   0.259          10.007882      7.7676047      7.9526273      303.723       -85760.381      359091.24     -92677.37       628.1092      -92049.261    
    260000   0.26           9.8769638      7.9777704      8.0901001      305.78563     -86482.781      359376.46     -92665.414      632.37479     -92033.04     
    261000   0.261          9.9672506      7.9901733      8.007173       305.60002     -86548.656      359661.68     -92648.559      631.99095     -92016.569    
    262000   0.262          9.9240067      7.9262206      8.0716581      306.86442     -86406.285      359946.9      -92635.888      634.60577     -92001.283    
    263000   0.263          9.9860942      7.8299999      8.0665022      306.8493      -86275.321      360232.12     -92624.884      634.5745      -91990.309    
    264000   0.264          9.9795668      7.9731907      7.9703521      305.85233     -86410.365      360517.34     -92610.362      632.51274     -91977.849    
    265000   0.265          9.8925573      7.9868841      7.9954709      302.49273     -86249.708      360802.55     -92584.311      625.56497     -91958.746    
    266000   0.266          9.8997032      7.9258193      7.8873182      307.51031     -85709.469      361087.77     -92576.033      635.94148     -91940.092    
    267000   0.267          10.081793      7.9149222      7.930317       305.99992     -86423.441      361372.99     -92553.13       632.81794     -91920.312    
    268000   0.268          9.9897161      7.9573461      8.0553216      305.71942     -86674.613      361658.21     -92538.676      632.23788     -91906.438    
    269000   0.269          9.8850051      7.9194192      7.926065       303.81605     -85768.298      361943.43     -92527.513      628.30164     -91899.211    
    270000   0.27           10.024631      7.8734237      7.9338538      305.2029      -86106.361      362228.65     -92513.714      631.16968     -91882.545    
    271000   0.271          10.023194      7.9497009      7.9678942      305.3168      -86469.295      362513.87     -92495.41       631.40523     -91864.004    
    272000   0.272          9.8877545      7.8773747      8.0300515      306.84582     -85983.936      362799.09     -92479.339      634.56729     -91844.772    
    273000   0.273          9.9735547      7.9015659      8.038238       303.75374     -86377.862      363084.31     -92464.44       628.17278     -91836.267    
    274000   0.274          9.9834857      7.9401367      7.9324716      304.99394     -86186.98       363369.53     -92447.266      630.73756     -91816.528    
    275000   0.275          9.9332403      7.8576157      7.9511428      306.60746     -85806.663      363654.75     -92439.051      634.07437     -91804.977    
    276000   0.276          9.9016206      7.9352058      7.9088659      302.66776     -85818.974      363939.97     -92418.172      625.92693     -91792.245    
    277000   0.277          9.9491863      7.8377399      7.9969385      303.94812     -85946.216      364225.19     -92405.162      628.57476     -91776.588    
    278000   0.278          9.8274051      7.9381577      7.9524769      306.85307     -85726.799      364510.41     -92393.281      634.58229     -91758.698    
    279000   0.279          9.9116065      7.9221109      7.9560439      302.99019     -85965.871      364795.63     -92374.403      626.59373     -91747.809    
    280000   0.28           9.9425553      7.9722168      7.9376591      305.12892     -86174.771      365080.85     -92356.667      631.01669     -91725.651    
    281000   0.281          9.9029508      7.9232127      7.9468131      306.05505     -85909.922      365366.07     -92346.153      632.93197     -91713.221    
    282000   0.282          9.9295363      7.8036918      7.9523309      307.31067     -85618.53       365651.28     -92332.296      635.52863     -91696.767    
    283000   0.283          9.7984459      7.9353187      7.9908095      304.82685     -85748.58       365936.5      -92315.825      630.392       -91685.433    
    284000   0.284          9.8840244      7.986061       7.9503523      305.36599     -86068.126      366221.72     -92301.745      631.50696     -91670.238    
    285000   0.285          9.9294241      7.9837724      7.8495511      305.13298     -85875.825      366506.94     -92286.966      631.0251      -91655.941    
    286000   0.286          9.9540119      7.8940856      7.9242265      304.72633     -85907.747      366792.16     -92269.554      630.18412     -91639.37     
    287000   0.287          9.8465023      7.8927644      7.9592044      301.24408     -85661.57       367077.38     -92246.488      622.98272     -91623.506    
    288000   0.288          9.8720511      7.9851675      7.9969873      303.95115     -86180.687      367362.6      -92238.401      628.58103     -91609.82     
    289000   0.289          9.841569       7.9495899      7.9144003      302.53791     -85685.197      367647.82     -92219.317      625.6584      -91593.658    
    290000   0.29           9.9372171      7.7980517      7.8857225      304.96323     -85403.304      367933.04     -92210.998      630.67404     -91580.324    
    291000   0.291          9.9506269      7.9567066      7.7903705      306.65366     -85659.013      368218.26     -92189.306      634.1699      -91555.137    
    292000   0.292          9.8837901      7.8787898      7.8310166      303.85039     -85311.988      368503.48     -92172.011      628.37264     -91543.638    
    293000   0.293          9.9627003      7.838711       7.92567        302.63382     -85756.938      368788.7      -92156.124      625.85675     -91530.268    
    294000   0.294          10.054501      7.7702067      7.9034572      303.61835     -85760.55       369073.92     -92142.138      627.8928      -91514.246    
    295000   0.295          9.9805522      7.9093467      7.9181548      306.28527     -86026.846      369359.14     -92131.904      633.40805     -91498.496    
    296000   0.296          9.9358524      7.8161032      7.9427187      307.19784     -85648.914      369644.36     -92119.701      635.29528     -91484.405    
    297000   0.297          10.02227       7.8162016      7.9211282      307.46711     -85865.331      369929.58     -92107.081      635.85215     -91471.229    
    298000   0.298          9.9443976      7.8529053      7.9642272      305.63747     -85871.767      370214.8      -92086.748      632.06838     -91454.679    
    299000   0.299          10.066544      7.8480035      7.8643843      302.67693     -85929.774      370500.01     -92071.741      625.9459      -91445.795    
    300000   0.3            9.8853874      7.8958025      7.9210424      303.30918     -85674.107      370785.23     -92058.082      627.25341     -91430.828    
    301000   0.301          9.9081364      7.8435324      7.9491437      305.91303     -85669.375      371070.45     -92040.257      632.63826     -91407.618    
    302000   0.302          10.031407      7.8930797      7.9223689      302.70139     -86156.186      371355.67     -92022.826      625.99649     -91396.83     
    303000   0.303          9.9702086      7.892803       7.8903513      304.30963     -85844.543      371640.89     -92006.903      629.32237     -91377.581    
    304000   0.304          9.9125417      7.8898925      7.8096765      306.25952     -85373.702      371926.11     -91992.611      633.35481     -91359.256    
    305000   0.305          9.9325355      7.9436946      7.8559797      306.39002     -85774.033      372211.33     -91979.144      633.6247      -91345.519    
    306000   0.306          9.956775       7.8777138      7.9500689      303.43302     -85948.526      372496.55     -91964.111      627.50951     -91336.602    
    307000   0.307          9.9907738      7.8729179      7.9897337      303.91387     -86178.085      372781.77     -91949.35       628.50393     -91320.847    
    308000   0.308          10.023833      7.963931       7.7773618      302.54595     -85883.754      373066.99     -91930.107      625.67502     -91304.432    
    309000   0.309          9.9318135      7.8436245      7.8930404      306.7716      -85561.595      373352.21     -91918.402      634.41382     -91283.988    
    310000   0.31           9.9796203      7.8214251      7.8289252      306.10495     -85433.236      373637.43     -91898.893      633.03515     -91265.858    
    311000   0.311          9.891706       7.7507314      7.9060335      307.47294     -85161.57       373922.65     -91881.523      635.8642      -91245.659    
    312000   0.312          9.875838       7.9817091      7.8035875      307.67444     -85537.115      374207.87     -91866.833      636.28092     -91230.552    
    313000   0.313          9.8612648      7.8772523      7.9254478      305.7573      -85546.55       374493.09     -91846.286      632.31621     -91213.969    
    314000   0.314          9.8567057      7.8199812      7.9438196      304.11639     -85401.688      374778.31     -91835.365      628.92276     -91206.442    
    315000   0.315          9.8999609      7.7903951      7.7841347      308.45579     -84914.969      375063.53     -91822.028      637.89677     -91184.132    
    316000   0.316          9.7930484      7.8378142      7.8901187      305.01092     -85069.938      375348.74     -91804.486      630.77267     -91173.713    
    317000   0.317          9.8920355      7.7466492      7.9343645      307.10457     -85243.497      375633.96     -91792.169      635.1024      -91157.067    
    318000   0.318          9.867367       7.7358175      7.9660839      303.20501     -85230.895      375919.18     -91775.727      627.03799     -91148.689    
    319000   0.319          9.9073738      7.754773       7.9173407      307.32488     -85264.958      376204.4      -91769.163      635.55801     -91133.604    
    320000   0.32           9.8245127      7.8712589      7.7947389      307.68503     -84968.368      376489.62     -91749.569      636.30282     -91113.266    
    321000   0.321          9.8940032      7.7356078      7.8706648      309.17876     -85000.919      376774.84     -91737.901      639.3919      -91098.509    
    322000   0.322          9.9524791      7.8419508      7.8227627      305.80165     -85390.642      377060.06     -91717.445      632.40793     -91085.038    
    323000   0.323          9.9669955      7.8301339      7.7345221      307.39517     -85105.505      377345.28     -91703.146      635.70337     -91067.443    
    324000   0.324          9.8789321      7.7094747      7.8768365      307.00139     -84884.144      377630.5      -91686.233      634.88903     -91051.344    
    325000   0.325          9.8941943      7.7634456      7.8721802      306.23238     -85099.401      377915.72     -91670.914      633.2987      -91037.616    
    326000   0.326          9.9211783      7.8190263      7.8611023      306.33615     -85337.69       378200.94     -91654.78       633.51328     -91021.266    
    327000   0.327          9.8315159      7.7258813      7.8236213      308.07679     -84603.395      378486.16     -91640.173      637.11298     -91003.06     
    328000   0.328          9.7834205      7.8415482      7.8583525      304.79162     -84944.404      378771.38     -91620.533      630.31915     -90990.214    
    329000   0.329          9.8433444      7.7422598      7.7921948      305.72359     -84592.663      379056.6      -91612.957      632.24649     -90980.71     
    330000   0.33           9.8527915      7.7629408      7.8122185      307.66714     -84759.836      379341.82     -91597.839      636.26581     -90961.574    
    331000   0.331          9.9284407      7.7868824      7.7858625      305.16735     -85003.952      379627.04     -91581.241      631.09617     -90950.145    
    332000   0.332          9.8856313      7.7545935      7.8790279      307.53405     -85064.176      379912.26     -91570.495      635.99059     -90934.504    
    333000   0.333          9.9920512      7.7365643      7.8845038      307.95571     -85377.064      380197.47     -91555.397      636.86258     -90918.535    
    334000   0.334          9.8165073      7.7688301      7.8712052      307.21501     -84855.142      380482.69     -91536.975      635.33079     -90901.644    
    335000   0.335          9.8448371      7.7789915      7.8393707      308.21209     -84877.331      380767.91     -91525.319      637.39279     -90887.927    
    336000   0.336          9.8698367      7.7602928      7.7346724      306.67388     -84549.34       381053.13     -91513.222      634.21173     -90879.01     
    337000   0.337          9.8317105      7.7329704      7.7922572      307.99213     -84523.127      381338.35     -91496.941      636.9379      -90860.003    
    338000   0.338          9.7704232      7.6840437      7.8604221      304.65333     -84382.963      381623.57     -91487.927      630.03316     -90857.894    
    339000   0.339          9.804672       7.7188703      7.8099598      304.87711     -84445.007      381908.79     -91468.87       630.49594     -90838.374    
    340000   0.34           9.8645453      7.6560367      7.7843929      306.94633     -84349.916      382194.01     -91451.817      634.77516     -90817.042    
    341000   0.341          9.7941008      7.742324       7.7769895      307.06463     -84378.047      382479.23     -91442.006      635.01981     -90806.987    
    342000   0.342          9.7882663      7.7214981      7.7409927      307.51279     -84169.19       382764.45     -91427.963      635.94661     -90792.017    
    343000   0.343          9.8093866      7.6228003      7.6929492      306.80443     -83750.454      383049.67     -91418.081      634.4817      -90783.599    
    344000   0.344          9.7069992      7.7603804      7.7613563      306.15222     -84095.787      383334.89     -91400.509      633.13291     -90767.376    
    345000   0.345          9.8183052      7.7291112      7.7421257      307.04716     -84298.473      383620.11     -91396.79       634.98369     -90761.806    
    346000   0.346          9.7177733      7.7761454      7.7662452      305.82822     -84200.546      383905.33     -91375.613      632.46286     -90743.151    
    347000   0.347          9.6615726      7.6853475      7.6892221      305.77943     -83453.808      384190.55     -91366.598      632.36198     -90734.236    
    348000   0.348          9.5771867      7.6834548      7.6540347      305.26102     -83048.921      384475.77     -91351.181      631.28988     -90719.891    
    349000   0.349          9.4965209      7.6095518      7.5892757      309.75262     -82317.828      384760.99     -91347.466      640.57866     -90706.887    
    350000   0.35           9.2781667      7.6084536      7.61275        313.43817     -81664.568      385046.2      -91357.739      648.20049     -90709.538    
    351000   0.351          8.7617914      7.3690416      7.4384679      318.19636     -78564.336      385331.42     -91406.219      658.04059     -90748.179    
    352000   0.352          7.536475       7.0899219      7.0558635      342.89716     -72274.201      385616.64     -91584.732      709.12267     -90875.609    
    353000   0.353          5.1453427      6.2981192      6.2554577      420.4532      -58996.399      385901.86     -92166.004      869.51111     -91296.493    
    354000   0.354          1.3501428      4.4518662      4.2099692      499.58549     -33373.261      386187.08     -93364.019      1033.1593     -92330.86     
    355000   0.355         -9.0008587     -0.20054421    -16.419916      17928.606      85404.396      386472.3      -94248.11       37076.949     -57171.16     
    356000   0.356         -5.6665513     -11.017417     -11.391009      13547.443      93583.256      386757.52     -91301.233      28016.56      -63284.672    
    357000   0.357         -7.7308871     -5.9744341     -7.3402951      10367.371      70152.054      387042.74     -92129.338      21440.067     -70689.271    
    358000   0.358         -5.6896381     -4.7041888     -5.1559101      8272.1938      51832.457      387327.96     -92110.204      17107.17      -75003.033    
    359000   0.359         -3.1146265     -3.161346      -3.1522816      6458.2552      31427.514      387613.18     -88532.904      13355.885     -75177.019    
    360000   0.36          -1.4713134     -2.7281884     -0.94395965     6329.0964      17144.871      387898.4      -89564.577      13088.781     -76475.796    
    361000   0.361         -1.3633862     -0.850507      -1.446234       5427.8907      12200.424      388183.62     -88494.862      11225.057     -77269.804    
    362000   0.362         -1.2058269     -0.13667041    -0.62930513     4695.3446      6572.6746      388468.84     -87939.244      9710.1278     -78229.116    
    363000   0.363         -0.46010115    -22.353105     -5.6778792      21121.613      94970.284      388754.06     -89780.948      43680.195     -46100.753    
    364000   0.364          0.22350536     1.3129055      0.1623407      4282.864      -5662.5054      389039.28     -88921.255      8857.1043     -80064.151    
    365000   0.365         -0.20063381    -0.45409067    -0.49360711     5267.73        3827.772       389324.5      -88580.038      10893.84      -77686.198    
    366000   0.366         -1.0886636     -0.64802136    -0.76948523     4991.9902      8353.9006      389609.72     -88227.671      10323.601     -77904.07     
    367000   0.367         -0.59202835    -0.6877889     -2.2426773      6787.2725      11741.648      389894.93     -89776.365      14036.304     -75740.061    
    368000   0.368         -1.5125056     -0.98148361    -1.1545172      5678.1222      12161.688      390180.15     -88838.423      11742.544     -77095.878    
    369000   0.369         -1.4351666     -3.2387781     -1.198276       7363.2929      19574.069      390465.37     -88923.758      15227.533     -73696.225    
    370000   0.37          -1.9207323     -0.28864098    -1.0969651      6792.9748      11021.128      390750.59     -88977.123      14048.096     -74929.027    
    371000   0.371          1.7747654      3.2825515      2.0756218      3123.049      -23776.463      391035.81     -89812.921      6458.5686     -83354.353    
    372000   0.372          0.5097734      2.0257708      1.5393071      2906.3201     -13582.838      391321.03     -88845.75       6010.3661     -82835.384    
    373000   0.373         -1.6874958     -1.2496323     -1.5525556      5226.7737      14965.612      391606.25     -87847.585      10809.141     -77038.444    
    374000   0.374          0.96300027     1.6979631      1.3712795      2845.0871     -13440.81       391891.47     -89993.887      5883.7343     -84110.153    
    375000   0.375          0.5213918      0.20841043     1.6986573      4044.8515     -8094.8652      392176.69     -89941.361      8364.8867     -81576.474    
    376000   0.376         -0.93198049     0.52124705     1.5620489      4668.8824     -3837.7184      392461.91     -89418.895      9655.4032     -79763.492    
    377000   0.377          0.087795574    0.56998809    -1.2290536      5193.6915      1904.2332      392747.13     -89456.877      10740.726     -78716.151    
    378000   0.378         -1.2282704     -27.918546     -18.311464      31849.372      158194.27      393032.35     -90198.055      65865.555     -24332.5      
    379000   0.379         -0.68278966    -0.48995769    -0.7636066      4730.3955      6454.5132      393317.57     -89406.9        9782.6142     -79624.286    
    380000   0.38          -3.1205101     -0.98693583    -1.3963432      6889.2485      18345.964      393602.79     -87805.502      14247.194     -73558.308    
    381000   0.381         -0.97184344    -0.60342547    -0.31033809     5522.32        6285.3567      393888.01     -90458.75       11420.34      -79038.409    
    382000   0.382          1.592658       1.2689902      1.1058118      3430.12       -13224.867      394173.23     -89724.835      7093.6015     -82631.234    
    383000   0.383         -0.54029246     0.3103229      0.67358551     4343.1741     -1478.7199      394458.45     -89838.088      8981.8277     -80856.26     
    384000   0.384         -1.8666179     -0.17051722     0.056793654    4719.0494      6601.1382      394743.66     -89073.42       9759.1502     -79314.27     
    385000   0.385          0.041356588   -0.17116968     0.23475779     4380.9187     -349.81566      395028.88     -89833.37       9059.8848     -80773.485    
    386000   0.386         -1.4430734     -2.4924299     -1.4938918      6910.5928      18097.984      395314.1      -91818.489      14291.334     -77527.154    
    387000   0.387         -2.781109      -3.0468289     -8.0845803      12863.262      46375.061      395599.32     -88949.577      26601.651     -62347.926    
    388000   0.388         -1.9872737     -1.0689493     -1.6816419      5945.7221      15792.883      395884.54     -90125.176      12295.95      -77829.227    
    389000   0.389         -1.3902356     -1.5923707     -0.74746586     5805.5349      12433.574      396169.76     -89820.76       12006.038     -77814.722    
    390000   0.39          -1.8753727     -1.4217143     -1.2970188      5713.6497      15313.686      396454.98     -88414.782      11816.017     -76598.765    
    391000   0.391          0.090386543   -0.094582265    0.091141359    4190.9639     -289.81879      396740.2      -88439.129      8667.0519     -79772.077    
    392000   0.392          0.12053542    -0.075937993   -0.25945303     4844.342       716.18535      397025.42     -88818.77       10018.259     -78800.511    
    393000   0.393         -0.53402231    -0.88389633    -0.43075947     5036.862       6162.2604      397310.64     -89995.488      10416.397     -79579.091    
    394000   0.394          0.36902834     0.13517121     1.252478       4318.0697     -5855.5917      397595.86     -88795.02       8929.9109     -79865.11     
    395000   0.395         -1.6695271     -4.7878853     -1.2266721      9732.6553      25613.615      397881.08     -89611.128      20127.453     -69483.675    
    396000   0.396         -0.1769326      0.3954792      0.53592735     4723.506      -2514.9132      398166.3      -90184.617      9768.3666     -80416.25     
    397000   0.397         -2.6872231      0.19196342     0.078280412    7042.6353      8056.5975      398451.52     -89251.509      14564.403     -74687.106    
    398000   0.398         -0.0079445437   0.72220817     0.3527316      3539.5339     -3556.6508      398736.74     -88306.845      7319.8731     -80986.972    
    399000   0.399         -4.3177932     -1.3852767     -0.49274093     8539.4853      20652.703      399021.96     -89233.333      17659.938     -71573.395    
    400000   0.4            0.059589794    0.5412861      0.80396437     4529.5254     -4682.8009      399307.18     -89146.906      9367.2083     -79779.698    
    401000   0.401         -0.33234219    -0.12045756     0.56720402     5033.2404     -381.34757      399592.39     -89490.834      10408.908     -79081.926    
    402000   0.402         -1.134721      -0.82565943    -1.443559       5424.8683      11346.465      399877.61     -87622.035      11218.807     -76403.228    
    403000   0.403         -5.0217307     -0.56548224    -0.68382304     8026.0806      20903.453      400162.83     -88042.531      16598.2       -71444.33     
    404000   0.404         -0.11493213    -0.41644337     0.2224777      4815.9911      1029.6593      400448.05     -88864.37       9959.6287     -78904.741    
    405000   0.405          0.5384919      0.92326021     0.53176528     3747.5105     -6645.0579      400733.27     -88442.783      7749.9757     -80692.808    
    406000   0.406         -0.34388452     0.73334485     0.28300179     4073.419      -2241.5404      401018.49     -89452.431      8423.9651     -81028.466    
